c Reduced graph for GEOM120_1 generated by Cyril Grelier
p edge 104 663
e 1 4
e 1 15
e 1 17
e 1 21
e 1 25
e 1 28
e 1 38
e 1 46
e 1 47
e 1 56
e 1 62
e 1 63
e 1 76
e 1 77
e 1 79
e 1 81
e 1 101
e 2 14
e 2 16
e 2 26
e 2 37
e 2 45
e 2 50
e 2 53
e 2 60
e 2 61
e 2 64
e 2 82
e 2 83
e 2 84
e 2 98
e 2 100
e 3 6
e 3 20
e 3 21
e 3 42
e 3 46
e 3 48
e 3 52
e 3 54
e 3 59
e 3 74
e 3 77
e 3 96
e 3 97
e 4 9
e 4 15
e 4 25
e 4 27
e 4 28
e 4 38
e 4 47
e 4 62
e 4 63
e 4 80
e 4 84
e 4 101
e 5 19
e 5 29
e 5 33
e 5 49
e 5 51
e 5 66
e 5 67
e 5 69
e 5 85
e 5 91
e 5 95
e 5 102
e 6 12
e 6 17
e 6 21
e 6 35
e 6 36
e 6 42
e 6 48
e 6 54
e 6 58
e 6 74
e 6 96
e 7 18
e 7 29
e 7 32
e 7 34
e 7 39
e 7 49
e 7 66
e 7 80
e 7 85
e 7 88
e 7 89
e 7 92
e 8 10
e 8 23
e 8 24
e 8 41
e 8 43
e 8 55
e 8 73
e 8 75
e 8 86
e 8 90
e 8 93
e 8 99
e 9 25
e 9 27
e 9 28
e 9 63
e 9 65
e 9 71
e 9 84
e 9 87
e 9 101
e 10 24
e 10 41
e 10 43
e 10 55
e 10 75
e 10 86
e 10 90
e 10 93
e 10 99
e 11 23
e 11 34
e 11 40
e 11 57
e 11 72
e 11 80
e 11 86
e 11 90
e 11 92
e 12 35
e 12 36
e 12 42
e 12 54
e 12 58
e 12 74
e 12 96
e 13 16
e 13 45
e 13 50
e 13 53
e 13 56
e 13 76
e 13 79
e 13 81
e 14 16
e 14 25
e 14 26
e 14 27
e 14 37
e 14 45
e 14 50
e 14 53
e 14 60
e 14 61
e 14 64
e 14 78
e 14 79
e 14 82
e 14 83
e 14 84
e 14 98
e 14 100
e 15 17
e 15 18
e 15 21
e 15 25
e 15 28
e 15 38
e 15 39
e 15 46
e 15 47
e 15 48
e 15 62
e 15 63
e 15 77
e 15 79
e 15 81
e 15 101
e 16 26
e 16 37
e 16 45
e 16 50
e 16 53
e 16 60
e 16 61
e 16 64
e 16 82
e 16 83
e 16 84
e 16 98
e 16 100
e 17 21
e 17 25
e 17 46
e 17 47
e 17 48
e 17 56
e 17 62
e 17 76
e 17 77
e 17 79
e 17 81
e 18 20
e 18 32
e 18 38
e 18 39
e 18 46
e 18 47
e 18 52
e 18 63
e 18 77
e 18 80
e 18 88
e 18 89
e 19 29
e 19 30
e 19 33
e 19 49
e 19 51
e 19 66
e 19 67
e 19 69
e 19 85
e 19 91
e 19 94
e 19 95
e 19 102
e 20 32
e 20 38
e 20 44
e 20 46
e 20 48
e 20 52
e 20 59
e 20 77
e 20 88
e 20 89
e 20 97
e 21 38
e 21 46
e 21 47
e 21 48
e 21 62
e 21 63
e 21 77
e 21 81
e 22 31
e 22 37
e 22 60
e 22 61
e 22 64
e 22 65
e 22 68
e 22 70
e 22 78
e 22 83
e 22 87
e 22 103
e 22 104
e 23 24
e 23 31
e 23 41
e 23 43
e 23 57
e 23 72
e 23 75
e 24 41
e 24 43
e 24 55
e 24 75
e 24 93
e 25 27
e 25 28
e 25 45
e 25 56
e 25 62
e 25 63
e 25 76
e 25 79
e 25 81
e 25 84
e 25 100
e 25 101
e 26 27
e 26 37
e 26 45
e 26 50
e 26 53
e 26 60
e 26 61
e 26 64
e 26 78
e 26 82
e 26 83
e 26 84
e 26 98
e 26 100
e 27 28
e 27 37
e 27 60
e 27 65
e 27 71
e 27 83
e 27 84
e 27 87
e 27 100
e 27 101
e 28 38
e 28 39
e 28 47
e 28 62
e 28 63
e 28 71
e 28 80
e 28 101
e 29 32
e 29 49
e 29 51
e 29 66
e 29 67
e 29 69
e 29 85
e 29 91
e 29 95
e 29 102
e 30 34
e 30 40
e 30 51
e 30 67
e 30 73
e 30 85
e 30 86
e 30 90
e 30 92
e 30 94
e 30 99
e 31 57
e 31 65
e 31 68
e 31 70
e 31 71
e 31 72
e 31 78
e 31 87
e 31 103
e 31 104
e 32 39
e 32 44
e 32 49
e 32 52
e 32 66
e 32 88
e 32 89
e 33 49
e 33 51
e 33 66
e 33 67
e 33 69
e 33 91
e 33 95
e 33 102
e 34 40
e 34 80
e 34 85
e 34 86
e 34 90
e 34 92
e 34 94
e 35 36
e 35 42
e 35 54
e 35 58
e 35 74
e 35 96
e 36 42
e 36 54
e 36 58
e 36 74
e 36 96
e 37 45
e 37 60
e 37 61
e 37 64
e 37 65
e 37 68
e 37 70
e 37 71
e 37 78
e 37 83
e 37 84
e 37 87
e 37 100
e 37 103
e 37 104
e 38 39
e 38 46
e 38 47
e 38 48
e 38 62
e 38 63
e 38 77
e 38 80
e 38 88
e 38 89
e 38 101
e 39 46
e 39 47
e 39 63
e 39 77
e 39 80
e 39 88
e 39 89
e 40 72
e 40 73
e 40 80
e 40 86
e 40 90
e 40 92
e 40 93
e 40 99
e 41 43
e 41 55
e 41 57
e 41 75
e 41 86
e 41 93
e 42 54
e 42 58
e 42 74
e 42 96
e 43 55
e 43 57
e 43 75
e 43 93
e 44 49
e 44 52
e 44 59
e 44 88
e 44 89
e 44 97
e 45 50
e 45 53
e 45 56
e 45 60
e 45 79
e 45 81
e 45 82
e 45 83
e 45 84
e 45 100
e 46 47
e 46 48
e 46 52
e 46 63
e 46 77
e 46 88
e 46 89
e 47 48
e 47 62
e 47 63
e 47 77
e 47 88
e 47 101
e 48 52
e 48 54
e 48 77
e 48 88
e 48 96
e 48 97
e 49 51
e 49 66
e 49 67
e 49 69
e 49 85
e 49 91
e 49 95
e 49 102
e 50 53
e 50 60
e 50 61
e 50 64
e 50 82
e 50 83
e 50 98
e 50 100
e 51 66
e 51 67
e 51 69
e 51 85
e 51 91
e 51 94
e 51 95
e 51 102
e 52 59
e 52 77
e 52 88
e 52 89
e 52 97
e 53 60
e 53 82
e 53 98
e 53 100
e 54 58
e 54 74
e 54 96
e 54 97
e 55 73
e 55 75
e 55 86
e 55 90
e 55 93
e 55 99
e 56 62
e 56 76
e 56 79
e 56 81
e 56 84
e 57 65
e 57 68
e 57 72
e 57 75
e 57 87
e 58 74
e 58 96
e 59 89
e 59 97
e 60 61
e 60 64
e 60 78
e 60 82
e 60 83
e 60 84
e 60 98
e 60 100
e 61 64
e 61 70
e 61 78
e 61 82
e 61 83
e 61 84
e 61 98
e 61 100
e 61 103
e 61 104
e 62 63
e 62 76
e 62 79
e 62 81
e 62 84
e 62 101
e 63 77
e 63 80
e 63 101
e 64 70
e 64 78
e 64 82
e 64 83
e 64 98
e 64 103
e 65 68
e 65 70
e 65 71
e 65 72
e 65 78
e 65 83
e 65 87
e 65 103
e 65 104
e 66 67
e 66 69
e 66 85
e 66 91
e 66 95
e 66 102
e 67 69
e 67 85
e 67 91
e 67 94
e 67 95
e 67 102
e 68 70
e 68 71
e 68 72
e 68 78
e 68 83
e 68 87
e 68 103
e 68 104
e 69 85
e 69 91
e 69 95
e 69 102
e 70 78
e 70 83
e 70 87
e 70 103
e 70 104
e 71 72
e 71 87
e 71 103
e 71 104
e 72 75
e 72 87
e 73 86
e 73 90
e 73 92
e 73 93
e 73 94
e 73 99
e 74 96
e 76 79
e 76 81
e 77 88
e 77 89
e 77 101
e 78 83
e 78 87
e 78 100
e 78 103
e 78 104
e 79 81
e 79 84
e 79 100
e 79 101
e 80 85
e 80 92
e 81 84
e 82 98
e 83 84
e 83 100
e 83 103
e 83 104
e 84 100
e 84 101
e 85 91
e 85 92
e 85 94
e 85 102
e 86 90
e 86 92
e 86 93
e 86 94
e 86 99
e 87 103
e 87 104
e 88 89
e 88 97
e 89 97
e 90 92
e 90 93
e 90 94
e 90 99
e 91 95
e 91 102
e 92 94
e 93 99
e 94 99
e 94 102
e 95 102
e 96 97
e 103 104
